p cnf 7230 16
-2892 -2900 -3464 0
2892 -3465 0
3466 3467 0
2894 -3467 0
-2894 -3466 0
3464 3465 0
3462 3463 0
2888 -3463 0
-2888 -3462 0
3460 3461 0
2886 -3461 0
-2886 -3460 0
2900 -3465 0
2896 -3469 0
3458 3459 0
-3458 -3459 0
